40
100
70	2
69	2
68	1
67	4
66	3
65	6
64	3
62	2
61	5
60	2
59	5
58	1
57	3
53	2
52	1
51	1
50	3
49	2
48	2
47	4
46	3
45	4
43	1
41	2
40	2
39	2
38	4
37	1
36	2
34	4
33	3
31	2
28	2
27	2
26	3
25	2
24	1
23	3
22	1
20	2
